
;this file is automatically generated: Fri Jul 26 18:08:45 IST 2019

;declarations generated

(declare-fun type_9e9a5f7c_a285_46cf_8b8e_587822289b38_D ( Int) Bool)
(declare-fun oclExcludes ( Int Int) Bool)
(declare-fun oclSelect ( Int Bool) Int)
(declare-fun Cardinality ( Int) Int)
(declare-fun type_162c28c9_0b56_4f71_a68b_47e3cf6faf10_A ( Int) Bool)
(declare-fun obj_fd175ab3_d98e_4bfe_b6db_0de73c73cd22 ( Int) Int)
(declare-fun container_ ( Int) Int)
(declare-fun oclIncludes ( Int Int) Bool)
(declare-fun aux1 () Int)
(declare-fun aux0 () Int)
(declare-fun aux3 () Int)
(declare-fun type_687b684b_5180_487f_9928_51345ff67c6c_B ( Int) Bool)
(declare-fun aux2 () Int)
(declare-fun type_e47c52fb_c8c5_4948_983f_eaf335d026bc_C ( Int) Bool)
(declare-fun aux4 () Int)
(declare-fun weight4 () Int)
(declare-fun weight3 () Int)
(declare-fun ObjAt ( Int Int) Int)
(declare-fun weight2 () Int)
(declare-fun weight1 () Int)
(declare-fun weight0 () Int)

;formula(s) generated
(assert (and (>= aux0 0) (<= aux0 1)))
(assert (or (or (forall ((b Int)) (=> (and ( type_687b684b_5180_487f_9928_51345ff67c6c_B b )  ( type_162c28c9_0b56_4f71_a68b_47e3cf6faf10_A b ) ) (forall ((c Int)) (=> (and ( type_e47c52fb_c8c5_4948_983f_eaf335d026bc_C c )  ( type_162c28c9_0b56_4f71_a68b_47e3cf6faf10_A c ) ) (not (= ( obj_fd175ab3_d98e_4bfe_b6db_0de73c73cd22 b )  ( obj_fd175ab3_d98e_4bfe_b6db_0de73c73cd22 c ) ) ))))) (and (= aux0 1) true)) (and (= aux0 0) false)))
(assert (and (=> (= aux0 0) (= weight0 1)) (=> (= aux0 1) (= weight0 0))))
(assert (and (>= aux1 0) (<= aux1 1)))
(assert (and (>= aux2 0) (<= aux2 1)))
(assert (and (>= aux3 0) (<= aux3 1)))
(assert (and (>= aux4 0) (<= aux4 1)))
(assert (or (or (exists ((p Int)) ( type_162c28c9_0b56_4f71_a68b_47e3cf6faf10_A ( obj_fd175ab3_d98e_4bfe_b6db_0de73c73cd22 p )  ) ) (and (= aux1 1) true)) (and (= aux1 0) false)))
(assert (and (=> (= aux1 0) (= weight1 1)) (=> (= aux1 1) (= weight1 0))))
(assert (or (or (exists ((p Int)) (and ( type_687b684b_5180_487f_9928_51345ff67c6c_B ( obj_fd175ab3_d98e_4bfe_b6db_0de73c73cd22 p )  )  ( type_162c28c9_0b56_4f71_a68b_47e3cf6faf10_A ( obj_fd175ab3_d98e_4bfe_b6db_0de73c73cd22 p )  ) )) (and (= aux2 1) true)) (and (= aux2 0) false)))
(assert (and (=> (= aux2 0) (= weight2 1)) (=> (= aux2 1) (= weight2 0))))
(assert (or (or (exists ((p Int)) (and ( type_e47c52fb_c8c5_4948_983f_eaf335d026bc_C ( obj_fd175ab3_d98e_4bfe_b6db_0de73c73cd22 p )  )  ( type_162c28c9_0b56_4f71_a68b_47e3cf6faf10_A ( obj_fd175ab3_d98e_4bfe_b6db_0de73c73cd22 p )  ) )) (and (= aux3 1) true)) (and (= aux3 0) false)))
(assert (and (=> (= aux3 0) (= weight3 1)) (=> (= aux3 1) (= weight3 0))))
(assert (or (or (exists ((p Int)) (and (and (and ( type_9e9a5f7c_a285_46cf_8b8e_587822289b38_D ( obj_fd175ab3_d98e_4bfe_b6db_0de73c73cd22 p )  )  ( type_162c28c9_0b56_4f71_a68b_47e3cf6faf10_A ( obj_fd175ab3_d98e_4bfe_b6db_0de73c73cd22 p )  ) ) ( type_687b684b_5180_487f_9928_51345ff67c6c_B ( obj_fd175ab3_d98e_4bfe_b6db_0de73c73cd22 p )  ) ) ( type_e47c52fb_c8c5_4948_983f_eaf335d026bc_C ( obj_fd175ab3_d98e_4bfe_b6db_0de73c73cd22 p )  ) )) (and (= aux4 1) true)) (and (= aux4 0) false)))
(assert (and (=> (= aux4 0) (= weight4 1)) (=> (= aux4 1) (= weight4 0))))
(assert (= (+ (+ (+ (+ weight0 weight1) weight2) weight3) weight4) 4))

(assert (not (and (and (and (and (= weight0 0) (= weight1 1)) (= weight2 1)) (= weight3 1)) (= weight4 1)) ))

(assert (not (and (and (and (and (= weight0 1) (= weight1 1)) (= weight2 1)) (= weight3 1)) (= weight4 0)) ))
